Version identifier: 22.1.1.0 | 2022-11-28 | 9160aff4d
CPXPARAM_ClockType                               1
CPXPARAM_Read_DataCheck                          1
CPXPARAM_Threads                                 1
CPXPARAM_TimeLimit                               7200
CPXPARAM_MIP_Tolerances_AbsMIPGap                0
CPXPARAM_MIP_Tolerances_MIPGap                   0
CPXPARAM_MIP_Tolerances_Integrality              0
Tried aggregator 2 times.
MIP Presolve eliminated 22794 rows and 1120 columns.
MIP Presolve modified 932 coefficients.
Aggregator did 272 substitutions.
Reduced MIP has 2882 rows, 680 columns, and 7444 nonzeros.
Reduced MIP has 680 binaries, 0 generals, 0 SOSs, and 0 indicators.
Presolve time = 0.04 sec. (21.59 ticks)
Found incumbent of value -544.000000 after 0.06 sec. (32.40 ticks)
Probing time = 0.01 sec. (2.75 ticks)
Tried aggregator 1 time.
Detecting symmetries...
Reduced MIP has 2882 rows, 680 columns, and 7444 nonzeros.
Reduced MIP has 680 binaries, 0 generals, 0 SOSs, and 0 indicators.
Presolve time = 0.01 sec. (6.15 ticks)
Probing time = 0.01 sec. (2.71 ticks)
Clique table members: 3978.
MIP emphasis: balance optimality and feasibility.
MIP search method: dynamic search.
Parallel mode: none, using 1 thread.
Root relaxation solution time = 0.02 sec. (11.40 ticks)

        Nodes                                         Cuts/
   Node  Left     Objective  IInf  Best Integer    Best Bound    ItCnt     Gap

*     0+    0                         -544.0000      136.0000           125.00%
      0     0      136.0000   272     -544.0000      136.0000      356  125.00%
*     0+    0                           34.0000      136.0000           300.00%
*     0+    0                           67.0000      136.0000           102.99%
      0     0      134.0000   276       67.0000      Cuts: 31      512  100.00%
*     0+    0                          120.0000      134.0000            11.67%
      0     0      132.6250   291      120.0000      Cuts: 84      698   10.52%
      0     0      132.0000   295      120.0000  ZeroHalf: 86      795   10.00%
      0     0      132.0000   279      120.0000  ZeroHalf: 47      809   10.00%
      0     0      131.7000   302      120.0000 ZeroHalf: 165      967    9.75%
      0     0      131.4615   320      120.0000  ZeroHalf: 49     1043    9.55%
      0     0      130.8333   311      120.0000  ZeroHalf: 54     1189    9.03%
      0     0      130.3333   315      120.0000  ZeroHalf: 58     1315    8.61%
*     0+    0                          121.0000      130.3333             7.71%
      0     0        cutoff            121.0000      130.3333     1315    7.71%
      0     0      130.1111   305      121.0000  ZeroHalf: 65     1392    7.53%
      0     0      129.7104   321      121.0000  ZeroHalf: 93     1499    7.20%
*     0+    0                          124.0000      129.7104             4.61%
      0     0      129.5781   328      124.0000  ZeroHalf: 28     1572    4.50%
      0     0      129.4265   318      124.0000  ZeroHalf: 21     1674    4.38%
      0     0      129.3634   320      124.0000  ZeroHalf: 30     1723    4.33%
      0     0      129.3267   325      124.0000  ZeroHalf: 14     1774    4.30%
      0     0      129.3114   337      124.0000   ZeroHalf: 5     1808    4.28%
      0     0      129.3006   337      124.0000   ZeroHalf: 5     1838    4.27%
*     0+    0                          126.0000      129.3006             2.62%
      0     2      129.3006   337      126.0000      129.3006     1838    2.62%
Elapsed time = 2.46 sec. (1454.01 ticks, tree = 0.01 MB, solutions = 7)

Zero-half cuts applied:  58

Root node processing (before b&c):
  Real time             =    2.46 sec. (1454.03 ticks)
Sequential b&c:
  Real time             =    0.07 sec. (61.00 ticks)
                          ------------
Total (root+branch&cut) =    2.53 sec. (1515.02 ticks)
Solution is feasible.

---------------------
@@@ MIP_optimal
>>> Benchmark mc2024_track1_185.cnf k 2 OPT 126 TimeCost 4.659608364105225 TimeSolve 2.548976421356201 TimeRead 0.02284526824951172 TimeTrans 2.0877866744995117
